(declare-const delta_tmp___2 Int)
(declare-const delta_w Int)
(declare-const delta_tmp___1 Int)
(declare-const delta_y Int)
(declare-const delta_z Int)
(declare-const delta_x Int)
(assert (exists
         ((|tmp___2'?1| Int) (|z'?2| Int) (|w'?3| Int) (havoc?4 Int)
            (|tmp___1'?5| Int) (|S1,1?6| Real) (|y'?7| Int) (|S1,0?8| Real)
            (|x'?9| Int) (KSUM1?10 Int) (|K1,1?11| Int) (|K1,0?12| Int)
            (K?13 Int) (havoc?14 Int) (|tmp___1'?15| Int) (|y'?16| Int)
            (|x'?17| Int) (z?18 Int) (tmp___1?19 Int) (w?20 Int)
            (tmp___2?21 Int) (y?22 Int) (x?23 Int))
         (and (<= (- z?18) 0) (< (- w?20) 0) (<= (- y?22) 0) (<= (- x?23) 0)
                (= (+ (- w?20) z?18 1) 0) (< (+ w?20 -100000) 0)
                (or (< havoc?14 0) (< 0 havoc?14)) (<= (- K?13) 0)
                (<= (- |K1,0?12|) 0) (<= (- |K1,1?11|) 0)
                (= (+ |K1,1?11| |K1,0?12| (- K?13)) 0)
                (<= (+ KSUM1?10 (- K?13)) 0)
                (= (+ (- |S1,0?8|) |x'?9| (- |K1,1?11|)) 0)
                (= (+ (- |S1,1?6|) |y'?7| (- |K1,1?11|)) 0)
                (= (+ (- KSUM1?10) |K1,1?11| |K1,0?12|) 0)
                (= (+ |S1,0?8| (- x?23)) 0) (= (+ |S1,1?6| (- y?22)) 0)
                (or (and (= K?13 0) (= (+ (- |tmp___1'?5|) tmp___1?19) 0)
                           (= (+ (- |y'?7|) y?22) 0)
                           (= (+ (- |x'?9|) x?23) 0))
                      (and (<= (+ (- K?13) 1) 0) (= (+ (- w?20) z?18 1) 0)
                             (= (+ (mod w?20 2) (mod z?18 2) -1) 0)
                             (<= (+ (mod z?18 2) -1) 0) (<= (- x?23) 0)
                             (<= (- y?22) 0) (<= (- (mod z?18 2)) 0)
                             (<= (+ (- w?20) 1) 0) (= (+ (- w?20) z?18 1) 0)
                             (= (+ (mod w?20 2) (mod z?18 2) -1) 0)
                             (<= (+ (mod z?18 2) -1) 0)
                             (<= (- (mod z?18 2)) 0)
                             (<= (+ (- (mod z?18 2)) (- |x'?9|) 1) 0)
                             (<= (+ (- (mod z?18 2)) (- |y'?7|) 1) 0)
                             (<= (+ (- w?20) 1) 0)))
                (= (+ (- |y'?7|) |x'?9| (- x?23) y?22) 0)
                (<= (+ |y'?7| (- K?13) (- y?22)) 0)
                (<= (+ (- |y'?7|) y?22) 0) (<= (- K?13) 0) (<= (- z?18) 0)
                (< (- w?20) 0) (<= (- |y'?7|) 0) (<= (- |x'?9|) 0)
                (= (+ (- w?20) z?18 1) 0) (= havoc?4 0)
                (= (+ |tmp___2'?1| (- havoc?14)) 0)
                (= (+ |tmp___1'?15| (- havoc?4)) 0)
                (= (+ |z'?2| (- |y'?7|) (- |x'?9|)) 0)
                (= (+ |w'?3| (- |y'?7|) (- |x'?9|) -1) 0)
                (= (+ |y'?16| (- |y'?7|)) 0) (= (+ |x'?17| (- |x'?9|)) 0)
                (= delta_x (+ |x'?17| (- x?23)))
                (= delta_y (+ |y'?16| (- y?22)))
                (= delta_w (+ |w'?3| (- w?20)))
                (= delta_z (+ |z'?2| (- z?18)))
                (= delta_tmp___1 (+ |tmp___1'?15| (- tmp___1?19)))
                (= delta_tmp___2 (+ |tmp___2'?1| (- tmp___2?21))))))
(check-sat)
